problems/csplib-prob024/Langford-models/compact/O2/lingeling/model-langford_2_11-solution000001.eprime-solution
language ESSENCE' 1.0

letting seq_Function1D be [9, 2, 6, 7, 2, 10, 8, 5, 11, 6, 9, 7, 4, 5, 3, 8, 10, 4, 3, 1, 11, 1; int(1..22)]
