problems/csplib-prob024/Langford-models/compact/O2/lingeling/model-langford_2_11-solution000001.solution
language Essence 1.3

letting seq be
        function(1 --> 9, 2 --> 2, 3 --> 6, 4 --> 7, 5 --> 2, 6 --> 10, 7 --> 8, 8 --> 5, 9 --> 11, 10 --> 6, 11 --> 9,
                 12 --> 7, 13 --> 4, 14 --> 5, 15 --> 3, 16 --> 8, 17 --> 10, 18 --> 4, 19 --> 3, 20 --> 1, 21 --> 11,
                 22 --> 1)
